Ba2 Y1 Cu3 O7                           
   1.00000000000000     
     3.8446679115000002    0.0000000000000000    0.0000000000000000
     0.0000000000000000    3.9261519909000002    0.0000000000000000
     0.0000000000000000    0.0000000000000000   11.8236637115000001
   Ba   Y    Cu   O 
     2     1     3     7
Direct
  0.5000000000000000  0.5000000000000000  0.8193910119999970
  0.5000000000000000  0.5000000000000000  0.1806090030000007
  0.5000000000000000  0.5000000000000000  0.5000000000000000
  0.0000000000000000  0.0000000000000000  0.6466779710000026
  0.0000000000000000  0.0000000000000000  0.3533219990000021
  0.0000000000000000  0.0000000000000000  0.0000000000000000
  0.0000000000000000  0.5000000000000000  0.0000000000000000
  0.5000000000000000  0.0000000000000000  0.6206529740000022
  0.5000000000000000  0.0000000000000000  0.3793469969999990
  0.0000000000000000  0.5000000000000000  0.6216509939999995
  0.0000000000000000  0.5000000000000000  0.3783490060000005
  0.0000000000000000  0.0000000000000000  0.8408200140000019
  0.0000000000000000  0.0000000000000000  0.1591799999999992
 
  0.00000000E+00  0.00000000E+00  0.00000000E+00
  0.00000000E+00  0.00000000E+00  0.00000000E+00
  0.00000000E+00  0.00000000E+00  0.00000000E+00
  0.00000000E+00  0.00000000E+00  0.00000000E+00
  0.00000000E+00  0.00000000E+00  0.00000000E+00
  0.00000000E+00  0.00000000E+00  0.00000000E+00
  0.00000000E+00  0.00000000E+00  0.00000000E+00
  0.00000000E+00  0.00000000E+00  0.00000000E+00
  0.00000000E+00  0.00000000E+00  0.00000000E+00
  0.00000000E+00  0.00000000E+00  0.00000000E+00
  0.00000000E+00  0.00000000E+00  0.00000000E+00
  0.00000000E+00  0.00000000E+00  0.00000000E+00
  0.00000000E+00  0.00000000E+00  0.00000000E+00
