Ba2 Y1 Cu3 O7
1.0
        3.8446679115         0.0000000000         0.0000000000
        0.0000000000         3.9261519909         0.0000000000
        0.0000000000         0.0000000000        11.8236637115
   Ba    Y   Cu    O
    2    1    3    7
Direct
     0.500000000         0.500000000         0.819391012
     0.500000000         0.500000000         0.180609003
     0.500000000         0.500000000         0.500000000
     0.000000000         0.000000000         0.646677971
     0.000000000         0.000000000         0.353321999
     0.000000000         0.000000000         0.000000000
     0.000000000         0.500000000         0.000000000
     0.500000000         0.000000000         0.620652974
     0.500000000         0.000000000         0.379346997
     0.000000000         0.500000000         0.621650994
     0.000000000         0.500000000         0.378349006
     0.000000000         0.000000000         0.840820014
     0.000000000         0.000000000         0.159180000

